120
[13,15,16,17,18,19,20,21,22,23,24,25,26,27,28,29,30,31,32,33,34,35,37,38,39,40,41,42,43,44,46,47,48,49,50,51,52,53,55,56,57,58,59,60,61,62,63,65,66,67,68,70,71,72,73,74,76,77,78,80,81,82,83,84]
[1,2,4,2,3,5,5,3,3,1,3,5,2,2,5,1,3,2,4,3,2,3,3,3,1,6,3,3,2,4,3,6,5,5,2,2,7,3,1,4,3,5,4,6,5,4,2,4,3,3,1,6,1,2,1,4,2,1,1,4,1,3,5,2]
